% Auto-generated by scripts/generate_dzn.py
% problem_type   = regex
% instance       = regex_7
% source_json    = instances_json/1_medium_blowup/regex_7.json
% blowup         = 6.125
% representation = DFA

mode = 0;

var_count = 14;
Q = 49;
S = 3;
q0 = 1;
F = {29, 30, 31, 32, 33, 34, 35, 36, 37, 38, 39, 40, 41, 42, 43, 44, 45, 46, 47, 48, 49};
d_dfa = array2d(1..49, 1..3, [
  1, 2, 1,
  1, 3, 1,
  4, 5, 4,
  6, 7, 6,
  8, 9, 8,
  10, 11, 10,
  10, 12, 10,
  13, 14, 13,
  15, 16, 15,
  17, 18, 17,
  17, 19, 17,
  20, 21, 20,
  22, 23, 22,
  22, 24, 22,
  25, 26, 25,
  27, 28, 27,
  29, 30, 29,
  29, 31, 29,
  32, 33, 32,
  34, 35, 34,
  36, 37, 36,
  38, 39, 38,
  38, 40, 38,
  41, 42, 41,
  43, 44, 43,
  43, 45, 43,
  46, 47, 46,
  48, 49, 48,
  1, 2, 1,
  1, 3, 1,
  4, 5, 4,
  6, 7, 6,
  8, 9, 8,
  10, 11, 10,
  10, 12, 10,
  13, 14, 13,
  15, 16, 15,
  29, 30, 29,
  29, 31, 29,
  32, 33, 32,
  34, 35, 34,
  36, 37, 36,
  38, 39, 38,
  38, 40, 38,
  41, 42, 41,
  43, 44, 43,
  43, 45, 43,
  46, 47, 46,
  48, 49, 48
]);
d_nfa = array2d(1..49, 1..3, [
  {}, {}, {},
  {}, {}, {},
  {}, {}, {},
  {}, {}, {},
  {}, {}, {},
  {}, {}, {},
  {}, {}, {},
  {}, {}, {},
  {}, {}, {},
  {}, {}, {},
  {}, {}, {},
  {}, {}, {},
  {}, {}, {},
  {}, {}, {},
  {}, {}, {},
  {}, {}, {},
  {}, {}, {},
  {}, {}, {},
  {}, {}, {},
  {}, {}, {},
  {}, {}, {},
  {}, {}, {},
  {}, {}, {},
  {}, {}, {},
  {}, {}, {},
  {}, {}, {},
  {}, {}, {},
  {}, {}, {},
  {}, {}, {},
  {}, {}, {},
  {}, {}, {},
  {}, {}, {},
  {}, {}, {},
  {}, {}, {},
  {}, {}, {},
  {}, {}, {},
  {}, {}, {},
  {}, {}, {},
  {}, {}, {},
  {}, {}, {},
  {}, {}, {},
  {}, {}, {},
  {}, {}, {},
  {}, {}, {},
  {}, {}, {},
  {}, {}, {},
  {}, {}, {},
  {}, {}, {},
  {}, {}, {}
]);
